Version identifier: 22.1.0.0 | 2022-03-09 | 1a383f8ce
CPXPARAM_Read_DataCheck                          1
CPXPARAM_TimeLimit                               600
Tried aggregator 3 times.
MIP Presolve eliminated 112110 rows and 9091 columns.
MIP Presolve modified 1241 coefficients.
Aggregator did 104593 substitutions.
Reduced MIP has 10477 rows, 107316 columns, and 225312 nonzeros.
Reduced MIP has 107276 binaries, 40 generals, 0 SOSs, and 0 indicators.
Presolve time = 1.36 sec. (1374.98 ticks)
Tried aggregator 1 time.
Detecting symmetries...
Reduced MIP has 10477 rows, 107316 columns, and 225312 nonzeros.
Reduced MIP has 107276 binaries, 40 generals, 0 SOSs, and 0 indicators.
Presolve time = 0.24 sec. (167.11 ticks)
Probing fixed 60 vars, tightened 0 bounds.
Probing changed sense of 12 constraints.
Probing time = 0.27 sec. (30.48 ticks)
Clique table members: 217274.
MIP emphasis: balance optimality and feasibility.
MIP search method: dynamic search.
Parallel mode: deterministic, using up to 8 threads.
Root relaxation solution time = 1.67 sec. (824.51 ticks)

        Nodes                                         Cuts/
   Node  Left     Objective  IInf  Best Integer    Best Bound    ItCnt     Gap

      0     0       40.3845  7625                     40.3845       24         
      0     0       64.0000   997                    Cuts: 41    18498         
      0     0       64.0000  1078                    Cuts: 82    33428         
      0     0       64.0000  1024                    Cuts: 59    49389         
      0     0       64.0000  1175                ZeroHalf: 60    62765         
Heuristic still looking.
Heuristic still looking.
Heuristic still looking.
      0     2       64.0000  1175                     64.0000    62765         
Elapsed time = 465.84 sec. (220084.15 ticks, tree = 0.02 MB, solutions = 0)
      1     3       64.0000  1187                     64.0000    75154         
      3     5       64.0000   836                     64.0000    97156         
      4     4       64.0000   886                     64.0000    90748         
      5     4       64.0000  1023                     64.0000    90398         
      6     5       64.0000   814                     64.0000   103939         
      7     6       64.0000   620                     64.0000   106284         

Zero-half cuts applied:  155
Gomory fractional cuts applied:  25

Root node processing (before b&c):
  Real time             =  465.49 sec. (219942.77 ticks)
Parallel b&c, 8 threads:
  Real time             =  135.57 sec. (45737.07 ticks)
  Sync time (average)   =   70.33 sec.
  Wait time (average)   =    0.00 sec.
                          ------------
Total (root+branch&cut) =  601.07 sec. (265679.84 ticks)
